set VV := 0 1 2 3 4 5 6 7 8 9 10 11 12 13 14 15 16 17 18 19 ;
set VS := 0 1 2 3 4 5 6 7 8 9 10 11 12 13 14 15 16 17 18 19 20 21 22 23 24 25 26 27 28 29 30 31 32 33 34 35 36 37 38 39 40 41 42 43 ;
param cv := 
0 13
1 13
2 18
3 15
4 15
5 21
6 10
7 14
8 11
9 10
10 12
11 12
12 10
13 23
14 22
15 22
16 23
17 21
18 25
19 13
;
param cs := 
0 23
1 34
2 28
3 38
4 38
5 23
6 29
7 22
8 40
9 26
10 37
11 29
12 30
13 24
14 35
15 20
16 25
17 40
18 37
19 28
20 20
21 38
22 34
23 26
24 22
25 37
26 38
27 35
28 31
29 31
30 38
31 31
32 21
33 34
34 20
35 20
36 33
37 39
38 31
39 31
40 31
41 20
42 34
43 32
;
param bv:	 0 1 2 3 4 5 6 7 8 9 10 11 12 13 14 15 16 17 18 19 := 
		0 0 0 0 0 15 0 0 0 0 0 0 0 0 0 0 0 0 0 0 0 
		1 0 0 0 12 0 0 0 0 0 0 0 0 0 0 0 0 0 0 0 0 
		2 0 0 0 0 0 0 0 0 11 0 0 0 0 0 0 0 0 0 0 14 
		3 0 0 0 0 21 0 0 0 0 0 15 0 0 0 0 0 0 0 0 0 
		4 0 0 0 0 0 0 0 0 0 0 0 16 0 0 0 0 0 0 0 0 
		5 0 0 0 0 0 0 18 0 0 0 15 0 0 0 0 0 19 0 16 0 
		6 0 0 0 0 0 0 0 0 0 0 0 0 0 0 0 20 0 0 0 0 
		7 0 0 0 0 0 0 0 0 25 0 0 23 0 0 14 0 0 0 0 12 
		8 0 0 0 0 0 0 0 0 0 25 0 0 12 11 0 0 0 0 0 0 
		9 0 0 0 0 0 0 0 0 0 0 0 0 0 0 14 0 0 0 0 18 
		10 0 0 0 0 0 0 0 0 0 0 0 0 0 21 15 14 0 0 0 0 
		11 0 0 0 0 0 0 0 0 0 0 0 0 0 0 0 0 10 0 0 0 
		12 0 0 0 0 0 0 0 0 0 0 0 0 0 0 0 0 24 0 22 0 
		13 0 0 0 0 0 0 0 0 0 0 0 0 0 0 11 0 0 0 0 0 
		14 0 0 0 0 0 0 0 0 0 0 0 0 0 0 0 0 0 14 0 0 
		15 0 0 0 0 0 0 0 0 0 0 0 0 0 0 0 0 11 0 0 0 
		16 0 0 0 0 0 0 0 0 0 0 0 0 0 0 0 0 0 0 0 0 
		17 0 0 0 0 0 0 0 0 0 0 0 0 0 0 0 0 0 0 15 0 
		18 0 0 0 0 0 0 0 0 0 0 0 0 0 0 0 0 0 0 0 0 
		19 0 0 0 0 0 0 0 0 0 0 0 0 0 0 0 0 0 0 0 0 
;
param bs:	 0 1 2 3 4 5 6 7 8 9 10 11 12 13 14 15 16 17 18 19 20 21 22 23 24 25 26 27 28 29 30 31 32 33 34 35 36 37 38 39 40 41 42 43 := 
		0 0 0 0 34 0 0 0 0 0 0 0 0 0 0 0 0 0 0 0 0 0 0 0 0 25 0 23 0 0 40 40 0 0 24 0 0 0 0 0 25 0 0 0 0 
		1 0 0 0 0 23 0 0 0 0 31 0 0 0 26 0 0 30 0 0 0 0 0 36 40 0 27 38 0 0 0 0 0 0 0 0 0 0 0 0 0 0 0 0 0 
		2 0 0 0 0 0 0 0 31 0 0 0 0 0 27 0 0 0 0 0 0 39 0 0 0 20 40 0 0 0 0 0 0 0 0 0 0 0 0 0 0 0 0 0 0 
		3 34 0 0 0 0 0 28 0 0 0 0 0 0 0 0 0 0 0 0 0 0 0 0 0 30 0 0 0 0 0 0 0 0 0 0 0 0 0 33 0 0 24 0 0 
		4 0 23 0 0 0 0 0 0 0 0 0 23 0 0 0 24 21 0 0 0 0 0 0 0 0 0 0 0 0 32 0 0 0 0 0 0 0 0 0 0 0 0 0 0 
		5 0 0 0 0 0 0 0 0 0 0 24 0 0 0 0 35 0 0 0 0 0 0 26 0 0 0 0 0 0 0 0 29 0 0 0 0 0 0 0 0 0 0 0 0 
		6 0 0 0 28 0 0 0 0 0 29 0 0 0 0 0 0 0 0 0 0 0 29 0 0 0 0 24 0 0 0 0 0 0 0 0 0 0 0 0 24 0 0 0 29 
		7 0 0 31 0 0 0 0 0 0 0 0 31 0 0 0 0 0 0 0 34 0 0 0 0 0 0 0 0 0 34 0 0 25 0 0 0 0 0 0 0 0 0 0 0 
		8 0 0 0 0 0 0 0 0 0 0 32 0 0 0 0 0 0 0 0 0 0 0 0 0 25 0 0 0 0 0 0 0 0 0 0 0 0 0 0 0 0 0 0 0 
		9 0 31 0 0 0 0 29 0 0 0 23 0 0 0 0 0 0 0 0 0 0 0 0 0 0 0 28 0 0 0 0 0 0 0 31 0 0 0 0 0 0 0 35 0 
		10 0 0 0 0 0 24 0 0 32 23 0 0 0 0 35 0 0 0 0 33 22 0 0 0 0 25 0 0 0 0 0 34 0 0 0 0 0 0 0 0 0 0 0 0 
		11 0 0 0 0 23 0 0 31 0 0 0 0 0 0 0 0 0 0 0 0 0 0 0 0 0 0 0 0 0 0 29 0 0 0 0 0 0 29 0 0 0 29 0 0 
		12 0 0 0 0 0 0 0 0 0 0 0 0 0 0 0 0 0 0 0 0 0 0 0 0 0 0 0 0 20 0 0 0 0 0 0 0 0 0 22 0 0 0 0 0 
		13 0 26 27 0 0 0 0 0 0 0 0 0 0 0 40 28 0 0 0 0 0 34 0 0 33 0 0 0 22 0 0 0 0 0 0 0 0 0 0 0 0 32 0 0 
		14 0 0 0 0 0 0 0 0 0 0 35 0 0 40 0 0 0 0 0 0 0 37 0 0 0 31 0 0 0 27 28 0 0 0 0 0 0 29 0 0 0 0 0 24 
		15 0 0 0 0 24 35 0 0 0 0 0 0 0 28 0 0 0 0 0 0 0 0 0 0 0 0 0 0 0 0 0 0 0 0 0 0 0 0 0 0 0 0 0 0 
		16 0 30 0 0 21 0 0 0 0 0 0 0 0 0 0 0 0 0 0 0 0 0 0 35 0 0 0 0 0 0 36 0 0 0 0 0 0 0 0 28 0 31 0 0 
		17 0 0 0 0 0 0 0 0 0 0 0 0 0 0 0 0 0 0 0 0 0 0 0 40 0 0 0 0 0 0 0 0 0 0 0 0 0 0 30 0 0 0 0 0 
		18 0 0 0 0 0 0 0 0 0 0 0 0 0 0 0 0 0 0 0 21 0 21 0 21 38 0 0 0 0 0 0 0 0 0 0 0 0 0 0 0 0 0 0 26 
		19 0 0 0 0 0 0 0 34 0 0 33 0 0 0 0 0 0 0 21 0 0 0 0 0 0 0 0 27 0 0 0 0 0 0 0 0 0 0 0 0 0 0 20 0 
		20 0 0 39 0 0 0 0 0 0 0 22 0 0 0 0 0 0 0 0 0 0 25 0 0 0 35 22 0 0 0 0 0 0 38 0 0 0 0 0 0 0 0 0 0 
		21 0 0 0 0 0 0 29 0 0 0 0 0 0 34 37 0 0 0 21 0 25 0 0 0 0 0 0 0 30 0 0 0 0 26 0 0 25 0 0 34 0 0 0 0 
		22 0 36 0 0 0 26 0 0 0 0 0 0 0 0 0 0 0 0 0 0 0 0 0 33 0 0 0 0 0 0 0 0 0 0 0 0 0 0 0 0 0 0 0 0 
		23 0 40 0 0 0 0 0 0 0 0 0 0 0 0 0 0 35 40 21 0 0 0 33 0 0 0 22 0 0 28 0 0 0 0 0 0 0 0 0 0 0 0 22 0 
		24 25 0 20 30 0 0 0 0 25 0 0 0 0 33 0 0 0 0 38 0 0 0 0 0 0 0 0 37 0 0 0 0 0 0 0 27 0 0 0 0 0 0 0 0 
		25 0 27 40 0 0 0 0 0 0 0 25 0 0 0 31 0 0 0 0 0 35 0 0 0 0 0 0 34 0 0 0 0 0 0 24 20 0 0 0 0 0 0 0 0 
		26 23 38 0 0 0 0 24 0 0 28 0 0 0 0 0 0 0 0 0 0 22 0 0 22 0 0 0 0 0 28 0 0 0 0 0 22 0 0 0 0 0 0 0 0 
		27 0 0 0 0 0 0 0 0 0 0 0 0 0 0 0 0 0 0 0 27 0 0 0 0 37 34 0 0 0 0 0 0 0 0 0 0 0 0 22 0 0 0 0 0 
		28 0 0 0 0 0 0 0 0 0 0 0 0 20 22 0 0 0 0 0 0 0 30 0 0 0 0 0 0 0 0 28 0 0 0 0 0 0 0 37 0 0 0 0 0 
		29 40 0 0 0 32 0 0 34 0 0 0 0 0 0 27 0 0 0 0 0 0 0 0 28 0 0 28 0 0 0 0 0 40 0 0 25 0 0 0 34 0 0 0 0 
		30 40 0 0 0 0 0 0 0 0 0 0 29 0 0 28 0 36 0 0 0 0 0 0 0 0 0 0 0 28 0 0 0 0 0 0 0 0 0 0 23 0 40 0 31 
		31 0 0 0 0 0 29 0 0 0 0 34 0 0 0 0 0 0 0 0 0 0 0 0 0 0 0 0 0 0 0 0 0 0 0 0 0 0 0 0 0 0 0 0 0 
		32 0 0 0 0 0 0 0 25 0 0 0 0 0 0 0 0 0 0 0 0 0 0 0 0 0 0 0 0 0 40 0 0 0 0 38 24 0 0 22 0 0 0 0 37 
		33 24 0 0 0 0 0 0 0 0 0 0 0 0 0 0 0 0 0 0 0 38 26 0 0 0 0 0 0 0 0 0 0 0 0 0 0 0 0 0 0 0 0 0 0 
		34 0 0 0 0 0 0 0 0 0 31 0 0 0 0 0 0 0 0 0 0 0 0 0 0 0 24 0 0 0 0 0 0 38 0 0 0 0 0 0 20 0 0 32 0 
		35 0 0 0 0 0 0 0 0 0 0 0 0 0 0 0 0 0 0 0 0 0 0 0 0 27 20 22 0 0 25 0 0 24 0 0 0 0 0 40 0 30 0 0 0 
		36 0 0 0 0 0 0 0 0 0 0 0 0 0 0 0 0 0 0 0 0 0 25 0 0 0 0 0 0 0 0 0 0 0 0 0 0 0 0 0 0 0 0 0 0 
		37 0 0 0 0 0 0 0 0 0 0 0 29 0 0 29 0 0 0 0 0 0 0 0 0 0 0 0 0 0 0 0 0 0 0 0 0 0 0 0 21 0 0 0 0 
		38 0 0 0 33 0 0 0 0 0 0 0 0 22 0 0 0 0 30 0 0 0 0 0 0 0 0 0 22 37 0 0 0 22 0 0 40 0 0 0 0 0 0 0 0 
		39 25 0 0 0 0 0 24 0 0 0 0 0 0 0 0 0 28 0 0 0 0 34 0 0 0 0 0 0 0 34 23 0 0 0 20 0 0 21 0 0 0 0 22 0 
		40 0 0 0 0 0 0 0 0 0 0 0 0 0 0 0 0 0 0 0 0 0 0 0 0 0 0 0 0 0 0 0 0 0 0 0 30 0 0 0 0 0 0 0 0 
		41 0 0 0 24 0 0 0 0 0 0 0 29 0 32 0 0 31 0 0 0 0 0 0 0 0 0 0 0 0 0 40 0 0 0 0 0 0 0 0 0 0 0 34 0 
		42 0 0 0 0 0 0 0 0 0 35 0 0 0 0 0 0 0 0 0 20 0 0 0 22 0 0 0 0 0 0 0 0 0 0 32 0 0 0 0 22 0 34 0 0 
		43 0 0 0 0 0 0 29 0 0 0 0 0 0 0 24 0 0 0 26 0 0 0 0 0 0 0 0 0 0 0 31 0 37 0 0 0 0 0 0 0 0 0 0 0 
;
